p cnf 1096 2778
-1 -2 0
1 2 0
-3 -4 0
3 4 0
-5 -6 0
5 6 0
-7 -8 0
7 8 0
-9 -10 0
9 10 0
-11 -12 0
11 12 0
-13 -14 0
13 14 0
-15 -16 0
15 16 0
-17 -18 0
17 18 0
-19 -20 0
19 20 0
-21 -22 0
21 22 0
9 -23 0
4 -23 0
-9 -4 23 0
17 -24 0
8 -24 0
-17 -8 24 0
5 -25 0
26 -25 0
-5 -26 25 0
18 -27 0
7 -27 0
-18 -7 27 0
10 -28 0
3 -28 0
-10 -3 28 0
-29 -27 0
29 27 0
-30 -24 0
30 24 0
-31 -23 0
31 23 0
-32 -28 0
32 28 0
32 -33 0
31 -33 0
-32 -31 33 0
29 -34 0
30 -34 0
-29 -30 34 0
31 -35 0
32 -35 0
-31 -32 35 0
25 -36 0
33 -36 0
-25 -33 36 0
35 -37 0
24 -37 0
-35 -24 37 0
36 -38 0
34 -38 0
-36 -34 38 0
-39 -37 0
39 37 0
-40 -38 0
40 38 0
31 -41 0
39 -41 0
-31 -39 41 0
40 -42 0
41 -42 0
-40 -41 42 0
6 -43 0
42 -43 0
-6 -42 43 0
18 -44 0
42 -44 0
-18 -42 44 0
42 -45 0
4 -45 0
-42 -4 45 0
42 -46 0
8 -46 0
-42 -8 46 0
42 -47 0
10 -47 0
-42 -10 47 0
26 -48 0
42 -48 0
-26 -42 48 0
-49 -42 0
49 42 0
-50 -44 0
50 44 0
18 -51 0
49 -51 0
-18 -49 51 0
49 -52 0
8 -52 0
-49 -8 52 0
49 -53 0
4 -53 0
-49 -4 53 0
-54 -46 0
54 46 0
26 -55 0
49 -55 0
-26 -49 55 0
49 -56 0
10 -56 0
-49 -10 56 0
-57 -48 0
57 48 0
-58 -47 0
58 47 0
-59 -45 0
59 45 0
6 -60 0
49 -60 0
-6 -49 60 0
-61 -43 0
61 43 0
-62 -56 0
62 56 0
-63 -60 0
63 60 0
-64 -51 0
64 51 0
-65 -53 0
65 53 0
-66 -55 0
66 55 0
-67 -52 0
67 52 0
61 -68 0
66 -68 0
-61 -66 68 0
64 -69 0
54 -69 0
-64 -54 69 0
62 -70 0
59 -70 0
-62 -59 70 0
63 -71 0
57 -71 0
-63 -57 71 0
65 -72 0
58 -72 0
-65 -58 72 0
67 -73 0
50 -73 0
-67 -50 73 0
-74 -73 0
74 73 0
20 -75 0
73 -75 0
-20 -73 75 0
-76 -70 0
76 70 0
-77 -69 0
77 69 0
-78 -68 0
78 68 0
-79 -71 0
79 71 0
-80 -72 0
80 72 0
16 -81 0
72 -81 0
-16 -72 81 0
78 -82 0
1 -82 0
-78 -1 82 0
15 -83 0
80 -83 0
-15 -80 83 0
-84 -75 0
84 75 0
74 -85 0
19 -85 0
-74 -19 85 0
-86 -81 0
86 81 0
-87 -83 0
87 83 0
-88 -85 0
88 85 0
86 -89 0
87 -89 0
-86 -87 89 0
84 -90 0
88 -90 0
-84 -88 90 0
89 -91 0
85 -91 0
-89 -85 91 0
89 -92 0
82 -92 0
-89 -82 92 0
90 -93 0
92 -93 0
-90 -92 93 0
-94 -91 0
94 91 0
-95 -93 0
95 93 0
87 -96 0
94 -96 0
-87 -94 96 0
96 -97 0
95 -97 0
-96 -95 97 0
97 -98 0
2 -98 0
-97 -2 98 0
-99 -97 0
99 97 0
97 -100 0
80 -100 0
-97 -80 100 0
20 -101 0
97 -101 0
-20 -97 101 0
97 -102 0
16 -102 0
-97 -16 102 0
97 -103 0
78 -103 0
-97 -78 103 0
97 -104 0
74 -104 0
-97 -74 104 0
-105 -100 0
105 100 0
99 -106 0
16 -106 0
-99 -16 106 0
99 -107 0
78 -107 0
-99 -78 107 0
99 -108 0
2 -108 0
-99 -2 108 0
74 -109 0
99 -109 0
-74 -99 109 0
-110 -103 0
110 103 0
99 -111 0
80 -111 0
-99 -80 111 0
-112 -104 0
112 104 0
-113 -102 0
113 102 0
-114 -101 0
114 101 0
-115 -98 0
115 98 0
20 -116 0
99 -116 0
-20 -99 116 0
-117 -111 0
117 111 0
-118 -107 0
118 107 0
-119 -109 0
119 109 0
-120 -108 0
120 108 0
-121 -116 0
121 116 0
-122 -106 0
122 106 0
120 -123 0
110 -123 0
-120 -110 123 0
105 -124 0
122 -124 0
-105 -122 124 0
118 -125 0
115 -125 0
-118 -115 125 0
117 -126 0
113 -126 0
-117 -113 126 0
119 -127 0
114 -127 0
-119 -114 127 0
121 -128 0
112 -128 0
-121 -112 128 0
-129 -125 0
129 125 0
12 -130 0
126 -130 0
-12 -126 130 0
-131 -126 0
131 126 0
-132 -123 0
132 123 0
-133 -124 0
133 124 0
-134 -127 0
134 127 0
128 -135 0
77 -135 0
-128 -77 135 0
-136 -128 0
136 128 0
79 -137 0
123 -137 0
-79 -123 137 0
127 -138 0
14 -138 0
-127 -14 138 0
124 -139 0
76 -139 0
-124 -76 139 0
133 -140 0
70 -140 0
-133 -70 140 0
11 -141 0
131 -141 0
-11 -131 141 0
-142 -139 0
142 139 0
-143 -135 0
143 135 0
-144 -130 0
144 130 0
13 -145 0
134 -145 0
-13 -134 145 0
136 -146 0
69 -146 0
-136 -69 146 0
-147 -138 0
147 138 0
129 -148 0
21 -148 0
-129 -21 148 0
-149 -146 0
149 146 0
-150 -140 0
150 140 0
-151 -145 0
151 145 0
-152 -141 0
152 141 0
144 -153 0
152 -153 0
-144 -152 153 0
150 -154 0
142 -154 0
-150 -142 154 0
149 -155 0
143 -155 0
-149 -143 155 0
151 -156 0
147 -156 0
-151 -147 156 0
152 -157 0
144 -157 0
-152 -144 157 0
154 -158 0
137 -158 0
-154 -137 158 0
145 -159 0
153 -159 0
-145 -153 159 0
157 -160 0
148 -160 0
-157 -148 160 0
154 -161 0
135 -161 0
-154 -135 161 0
155 -162 0
158 -162 0
-155 -158 162 0
-163 -161 0
163 161 0
156 -164 0
160 -164 0
-156 -160 164 0
-165 -159 0
165 159 0
-166 -162 0
166 162 0
-167 -164 0
167 164 0
165 -168 0
152 -168 0
-165 -152 168 0
142 -169 0
163 -169 0
-142 -163 169 0
169 -170 0
166 -170 0
-169 -166 170 0
168 -171 0
167 -171 0
-168 -167 171 0
22 -172 0
171 -172 0
-22 -171 172 0
171 -173 0
134 -173 0
-171 -134 173 0
170 -174 0
132 -174 0
-170 -132 174 0
170 -175 0
77 -175 0
-170 -77 175 0
170 -176 0
76 -176 0
-170 -76 176 0
12 -177 0
171 -177 0
-12 -171 177 0
-178 -171 0
178 171 0
131 -179 0
171 -179 0
-131 -171 179 0
170 -180 0
136 -180 0
-170 -136 180 0
-181 -170 0
181 170 0
79 -182 0
170 -182 0
-79 -170 182 0
171 -183 0
14 -183 0
-171 -14 183 0
129 -184 0
171 -184 0
-129 -171 184 0
133 -185 0
170 -185 0
-133 -170 185 0
-186 -175 0
186 175 0
181 -187 0
77 -187 0
-181 -77 187 0
-188 -180 0
188 180 0
12 -189 0
178 -189 0
-12 -178 189 0
-190 -172 0
190 172 0
178 -191 0
134 -191 0
-178 -134 191 0
22 -192 0
178 -192 0
-22 -178 192 0
-193 -176 0
193 176 0
129 -194 0
178 -194 0
-129 -178 194 0
-195 -174 0
195 174 0
14 -196 0
178 -196 0
-14 -178 196 0
181 -197 0
136 -197 0
-181 -136 197 0
76 -198 0
181 -198 0
-76 -181 198 0
-199 -179 0
199 179 0
133 -200 0
181 -200 0
-133 -181 200 0
-201 -182 0
201 182 0
-202 -183 0
202 183 0
-203 -184 0
203 184 0
131 -204 0
178 -204 0
-131 -178 204 0
-205 -173 0
205 173 0
-206 -185 0
206 185 0
-207 -177 0
207 177 0
79 -208 0
181 -208 0
-79 -181 208 0
181 -209 0
132 -209 0
-181 -132 209 0
-210 -196 0
210 196 0
-211 -198 0
211 198 0
-212 -194 0
212 194 0
-213 -192 0
213 192 0
-214 -191 0
214 191 0
-215 -189 0
215 189 0
-216 -200 0
216 200 0
-217 -204 0
217 204 0
-218 -197 0
218 197 0
-219 -209 0
219 209 0
-220 -208 0
220 208 0
-221 -187 0
221 187 0
205 -222 0
210 -222 0
-205 -210 222 0
213 -223 0
203 -223 0
-213 -203 223 0
201 -224 0
219 -224 0
-201 -219 224 0
215 -225 0
199 -225 0
-215 -199 225 0
207 -226 0
217 -226 0
-207 -217 226 0
216 -227 0
193 -227 0
-216 -193 227 0
188 -228 0
221 -228 0
-188 -221 228 0
218 -229 0
186 -229 0
-218 -186 229 0
214 -230 0
202 -230 0
-214 -202 230 0
212 -231 0
190 -231 0
-212 -190 231 0
211 -232 0
206 -232 0
-211 -206 232 0
220 -233 0
195 -233 0
-220 -195 233 0
-234 -222 0
234 222 0
-235 -232 0
235 232 0
-236 -233 0
236 233 0
-237 -224 0
237 224 0
-238 -229 0
238 229 0
-239 -225 0
239 225 0
-240 -223 0
240 223 0
-241 -227 0
241 227 0
-242 -226 0
242 226 0
-243 -230 0
243 230 0
-244 -231 0
244 231 0
-245 -228 0
245 228 0
232 -246 0
239 -246 0
-232 -239 246 0
228 -247 0
234 -247 0
-228 -234 247 0
223 -248 0
236 -248 0
-223 -236 248 0
225 -249 0
235 -249 0
-225 -235 249 0
222 -250 0
245 -250 0
-222 -245 250 0
-251 -250 0
251 250 0
-252 -249 0
252 249 0
-253 -247 0
253 247 0
-254 -246 0
254 246 0
253 -255 0
251 -255 0
-253 -251 255 0
252 -256 0
254 -256 0
-252 -254 256 0
254 -257 0
252 -257 0
-254 -252 257 0
256 -258 0
250 -258 0
-256 -250 258 0
248 -259 0
257 -259 0
-248 -257 259 0
259 -260 0
255 -260 0
-259 -255 260 0
-261 -258 0
261 258 0
252 -262 0
261 -262 0
-252 -261 262 0
-263 -260 0
263 260 0
263 -264 0
262 -264 0
-263 -262 264 0
235 -265 0
264 -265 0
-235 -264 265 0
264 -266 0
245 -266 0
-264 -245 266 0
239 -267 0
264 -267 0
-239 -264 267 0
-268 -264 0
268 264 0
264 -269 0
236 -269 0
-264 -236 269 0
264 -270 0
234 -270 0
-264 -234 270 0
264 -271 0
240 -271 0
-264 -240 271 0
268 -272 0
240 -272 0
-268 -240 272 0
239 -273 0
268 -273 0
-239 -268 273 0
245 -274 0
268 -274 0
-245 -268 274 0
-275 -266 0
275 266 0
-276 -265 0
276 265 0
-277 -271 0
277 271 0
-278 -267 0
278 267 0
268 -279 0
234 -279 0
-268 -234 279 0
235 -280 0
268 -280 0
-235 -268 280 0
-281 -270 0
281 270 0
268 -282 0
236 -282 0
-268 -236 282 0
-283 -269 0
283 269 0
-284 -273 0
284 273 0
-285 -272 0
285 272 0
-286 -279 0
286 279 0
-287 -274 0
287 274 0
-288 -280 0
288 280 0
-289 -282 0
289 282 0
286 -290 0
275 -290 0
-286 -275 290 0
284 -291 0
276 -291 0
-284 -276 291 0
288 -292 0
278 -292 0
-288 -278 292 0
287 -293 0
281 -293 0
-287 -281 293 0
277 -294 0
289 -294 0
-277 -289 294 0
285 -295 0
283 -295 0
-285 -283 295 0
-296 -292 0
296 292 0
-297 -293 0
297 293 0
295 -298 0
237 -298 0
-295 -237 298 0
238 -299 0
290 -299 0
-238 -290 299 0
291 -300 0
241 -300 0
-291 -241 300 0
-301 -295 0
301 295 0
-302 -290 0
302 290 0
-303 -294 0
303 294 0
-304 -291 0
304 291 0
-305 -300 0
305 300 0
-306 -299 0
306 299 0
304 -307 0
227 -307 0
-304 -227 307 0
229 -308 0
302 -308 0
-229 -302 308 0
-309 -307 0
309 307 0
-310 -308 0
310 308 0
310 -311 0
306 -311 0
-310 -306 311 0
309 -312 0
305 -312 0
-309 -305 312 0
312 -313 0
298 -313 0
-312 -298 313 0
312 -314 0
299 -314 0
-312 -299 314 0
-315 -314 0
315 314 0
311 -316 0
313 -316 0
-311 -313 316 0
-317 -316 0
317 316 0
305 -318 0
315 -318 0
-305 -315 318 0
318 -319 0
317 -319 0
-318 -317 319 0
319 -320 0
237 -320 0
-319 -237 320 0
319 -321 0
241 -321 0
-319 -241 321 0
319 -322 0
304 -322 0
-319 -304 322 0
319 -323 0
302 -323 0
-319 -302 323 0
319 -324 0
238 -324 0
-319 -238 324 0
-325 -319 0
325 319 0
319 -326 0
301 -326 0
-319 -301 326 0
325 -327 0
241 -327 0
-325 -241 327 0
-328 -324 0
328 324 0
-329 -320 0
329 320 0
325 -330 0
237 -330 0
-325 -237 330 0
325 -331 0
302 -331 0
-325 -302 331 0
325 -332 0
304 -332 0
-325 -304 332 0
-333 -323 0
333 323 0
-334 -326 0
334 326 0
-335 -322 0
335 322 0
-336 -321 0
336 321 0
238 -337 0
325 -337 0
-238 -325 337 0
301 -338 0
325 -338 0
-301 -325 338 0
-339 -338 0
339 338 0
-340 -330 0
340 330 0
-341 -331 0
341 331 0
-342 -332 0
342 332 0
-343 -327 0
343 327 0
-344 -337 0
344 337 0
343 -345 0
335 -345 0
-343 -335 345 0
344 -346 0
333 -346 0
-344 -333 346 0
339 -347 0
329 -347 0
-339 -329 347 0
341 -348 0
328 -348 0
-341 -328 348 0
336 -349 0
342 -349 0
-336 -342 349 0
340 -350 0
334 -350 0
-340 -334 350 0
-351 -349 0
351 349 0
-352 -347 0
352 347 0
-353 -346 0
353 346 0
-354 -348 0
354 348 0
-355 -345 0
355 345 0
-356 -350 0
356 350 0
-357 -358 0
357 358 0
-359 -360 0
359 360 0
-361 -362 0
361 362 0
-363 -364 0
363 364 0
-365 -366 0
365 366 0
-367 -368 0
367 368 0
-369 -370 0
369 370 0
-371 -372 0
371 372 0
-373 -374 0
373 374 0
-375 -376 0
375 376 0
-377 -378 0
377 378 0
-379 -380 0
379 380 0
373 -381 0
364 -381 0
-373 -364 381 0
362 -382 0
375 -382 0
-362 -375 382 0
374 -383 0
369 -383 0
-374 -369 383 0
372 -384 0
371 -384 0
-372 -371 384 0
367 -385 0
360 -385 0
-367 -360 385 0
378 -386 0
373 -386 0
-378 -373 386 0
380 -387 0
379 -387 0
-380 -379 387 0
379 -388 0
358 -388 0
-379 -358 388 0
368 -389 0
371 -389 0
-368 -371 389 0
363 -390 0
370 -390 0
-363 -370 390 0
375 -391 0
380 -391 0
-375 -380 391 0
358 -392 0
357 -392 0
-358 -357 392 0
370 -393 0
369 -393 0
-370 -369 393 0
375 -394 0
358 -394 0
-375 -358 394 0
378 -395 0
369 -395 0
-378 -369 395 0
371 -396 0
366 -396 0
-371 -366 396 0
374 -397 0
363 -397 0
-374 -363 397 0
366 -398 0
359 -398 0
-366 -359 398 0
377 -399 0
370 -399 0
-377 -370 399 0
364 -400 0
369 -400 0
-364 -369 400 0
368 -401 0
367 -401 0
-368 -367 401 0
361 -402 0
380 -402 0
-361 -380 402 0
372 -403 0
359 -403 0
-372 -359 403 0
377 -404 0
364 -404 0
-377 -364 404 0
361 -405 0
358 -405 0
-361 -358 405 0
367 -406 0
366 -406 0
-367 -366 406 0
378 -407 0
377 -407 0
-378 -377 407 0
366 -408 0
365 -408 0
-366 -365 408 0
362 -409 0
361 -409 0
-362 -361 409 0
374 -410 0
373 -410 0
-374 -373 410 0
368 -411 0
359 -411 0
-368 -359 411 0
377 -412 0
374 -412 0
-377 -374 412 0
365 -413 0
360 -413 0
-365 -360 413 0
380 -414 0
357 -414 0
-380 -357 414 0
372 -415 0
365 -415 0
-372 -365 415 0
373 -416 0
370 -416 0
-373 -370 416 0
378 -417 0
363 -417 0
-378 -363 417 0
371 -418 0
360 -418 0
-371 -360 418 0
368 -419 0
365 -419 0
-368 -365 419 0
367 -420 0
372 -420 0
-367 -372 420 0
-421 -389 0
421 389 0
-422 -400 0
422 400 0
-423 -419 0
423 419 0
-424 -393 0
424 393 0
-425 -420 0
425 420 0
-426 -415 0
426 415 0
-427 -411 0
427 411 0
-428 -410 0
428 410 0
-429 -395 0
429 395 0
-430 -407 0
430 407 0
-431 -397 0
431 397 0
-432 -403 0
432 403 0
-433 -404 0
433 404 0
-434 -408 0
434 408 0
-435 -381 0
435 381 0
-436 -396 0
436 396 0
-437 -398 0
437 398 0
-438 -401 0
438 401 0
-439 -418 0
439 418 0
-440 -412 0
440 412 0
-441 -399 0
441 399 0
-442 -386 0
442 386 0
-443 -416 0
443 416 0
-444 -417 0
444 417 0
-445 -385 0
445 385 0
-446 -390 0
446 390 0
-447 -384 0
447 384 0
-448 -383 0
448 383 0
-449 -406 0
449 406 0
-450 -413 0
450 413 0
423 -451 0
449 -451 0
-423 -449 451 0
433 -452 0
444 -452 0
-433 -444 452 0
429 -453 0
441 -453 0
-429 -441 453 0
443 -454 0
448 -454 0
-443 -448 454 0
445 -455 0
427 -455 0
-445 -427 455 0
435 -456 0
431 -456 0
-435 -431 456 0
425 -457 0
421 -457 0
-425 -421 457 0
439 -458 0
432 -458 0
-439 -432 458 0
450 -459 0
437 -459 0
-450 -437 459 0
449 -460 0
423 -460 0
-449 -423 460 0
447 -461 0
447 -461 0
-447 -447 461 0
424 -462 0
424 -462 0
-424 -424 462 0
422 -463 0
446 -463 0
-422 -446 463 0
428 -464 0
428 -464 0
-428 -428 464 0
437 -465 0
450 -465 0
-437 -450 465 0
421 -466 0
425 -466 0
-421 -425 466 0
434 -467 0
434 -467 0
-434 -434 467 0
440 -468 0
442 -468 0
-440 -442 468 0
441 -469 0
429 -469 0
-441 -429 469 0
438 -470 0
438 -470 0
-438 -438 470 0
430 -471 0
430 -471 0
-430 -430 471 0
436 -472 0
426 -472 0
-436 -426 472 0
466 -473 0
395 -473 0
-466 -395 473 0
465 -474 0
397 -474 0
-465 -397 474 0
457 -475 0
399 -475 0
-457 -399 475 0
387 -476 0
470 -476 0
-387 -470 476 0
467 -477 0
409 -477 0
-467 -409 477 0
458 -478 0
394 -478 0
-458 -394 478 0
470 -479 0
393 -479 0
-470 -393 479 0
455 -480 0
391 -480 0
-455 -391 480 0
461 -481 0
392 -481 0
-461 -392 481 0
451 -482 0
402 -482 0
-451 -402 482 0
466 -483 0
388 -483 0
-466 -388 483 0
472 -484 0
405 -484 0
-472 -405 484 0
416 -485 0
460 -485 0
-416 -460 485 0
458 -486 0
417 -486 0
-458 -417 486 0
467 -487 0
410 -487 0
-467 -410 487 0
382 -488 0
459 -488 0
-382 -459 488 0
455 -489 0
390 -489 0
-455 -390 489 0
472 -490 0
386 -490 0
-472 -386 490 0
461 -491 0
407 -491 0
-461 -407 491 0
457 -492 0
414 -492 0
-457 -414 492 0
-493 -474 0
493 474 0
464 -494 0
477 -494 0
-464 -477 494 0
476 -495 0
462 -495 0
-476 -462 495 0
-496 -487 0
496 487 0
488 -497 0
456 -497 0
-488 -456 497 0
453 -498 0
492 -498 0
-453 -492 498 0
-499 -479 0
499 479 0
463 -500 0
480 -500 0
-463 -480 500 0
-501 -473 0
501 473 0
471 -502 0
481 -502 0
-471 -481 502 0
468 -503 0
484 -503 0
-468 -484 503 0
-504 -490 0
504 490 0
-505 -489 0
505 489 0
452 -506 0
478 -506 0
-452 -478 506 0
-507 -475 0
507 475 0
454 -508 0
482 -508 0
-454 -482 508 0
469 -509 0
483 -509 0
-469 -483 509 0
-510 -486 0
510 486 0
-511 -485 0
511 485 0
-512 -491 0
512 491 0
438 -513 0
499 -513 0
-438 -499 513 0
-514 -503 0
514 503 0
437 -515 0
493 -515 0
-437 -493 515 0
-516 -498 0
516 498 0
421 -517 0
507 -517 0
-421 -507 517 0
-518 -506 0
518 506 0
-519 -502 0
519 502 0
-520 -497 0
520 497 0
-521 -495 0
521 495 0
-522 -508 0
522 508 0
434 -523 0
496 -523 0
-434 -496 523 0
425 -524 0
501 -524 0
-425 -501 524 0
-525 -500 0
525 500 0
-526 -494 0
526 494 0
447 -527 0
512 -527 0
-447 -512 527 0
-528 -509 0
528 509 0
511 -529 0
423 -529 0
-511 -423 529 0
432 -530 0
510 -530 0
-432 -510 530 0
426 -531 0
504 -531 0
-426 -504 531 0
427 -532 0
505 -532 0
-427 -505 532 0
527 -533 0
519 -533 0
-527 -519 533 0
530 -534 0
518 -534 0
-530 -518 534 0
529 -535 0
522 -535 0
-529 -522 535 0
520 -536 0
515 -536 0
-520 -515 536 0
521 -537 0
513 -537 0
-521 -513 537 0
531 -538 0
514 -538 0
-531 -514 538 0
524 -539 0
528 -539 0
-524 -528 539 0
517 -540 0
516 -540 0
-517 -516 540 0
523 -541 0
526 -541 0
-523 -526 541 0
532 -542 0
525 -542 0
-532 -525 542 0
-543 -536 0
543 536 0
-544 -538 0
544 538 0
-545 -535 0
545 535 0
-546 -540 0
546 540 0
-547 -542 0
547 542 0
-548 -537 0
548 537 0
-549 -539 0
549 539 0
-550 -533 0
550 533 0
-551 -534 0
551 534 0
-552 -541 0
552 541 0
543 -553 0
552 -553 0
-543 -552 553 0
-554 -553 0
554 553 0
543 -555 0
554 -555 0
-543 -554 555 0
-556 -555 0
556 555 0
556 -557 0
554 -557 0
-556 -554 557 0
557 -558 0
551 -558 0
-557 -551 558 0
-559 -557 0
559 557 0
-560 -558 0
560 558 0
559 -561 0
560 -561 0
-559 -560 561 0
561 -562 0
560 -562 0
-561 -560 562 0
562 -563 0
544 -563 0
-562 -544 563 0
-564 -563 0
564 563 0
558 -565 0
564 -565 0
-558 -564 565 0
561 -566 0
564 -566 0
-561 -564 566 0
-567 -565 0
567 565 0
-568 -566 0
568 566 0
567 -569 0
564 -569 0
-567 -564 569 0
-570 -569 0
570 569 0
568 -571 0
570 -571 0
-568 -570 571 0
550 -572 0
571 -572 0
-550 -571 572 0
-573 -572 0
573 572 0
573 -574 0
570 -574 0
-573 -570 574 0
566 -575 0
573 -575 0
-566 -573 575 0
-576 -574 0
576 574 0
573 -577 0
576 -577 0
-573 -576 577 0
-578 -577 0
578 577 0
578 -579 0
575 -579 0
-578 -575 579 0
579 -580 0
549 -580 0
-579 -549 580 0
-581 -580 0
581 580 0
578 -582 0
581 -582 0
-578 -581 582 0
575 -583 0
581 -583 0
-575 -581 583 0
-584 -582 0
584 582 0
-585 -583 0
585 583 0
584 -586 0
581 -586 0
-584 -581 586 0
-587 -586 0
587 586 0
585 -588 0
586 -588 0
-585 -586 588 0
547 -589 0
588 -589 0
-547 -588 589 0
-590 -589 0
590 589 0
583 -591 0
590 -591 0
-583 -590 591 0
590 -592 0
587 -592 0
-590 -587 592 0
-593 -592 0
593 592 0
-594 -591 0
594 591 0
590 -595 0
594 -595 0
-590 -594 595 0
593 -596 0
590 -596 0
-593 -590 596 0
-597 -596 0
597 596 0
-598 -595 0
598 595 0
596 -599 0
598 -599 0
-596 -598 599 0
599 -600 0
545 -600 0
-599 -545 600 0
-601 -600 0
601 600 0
601 -602 0
597 -602 0
-601 -597 602 0
601 -603 0
598 -603 0
-601 -598 603 0
-604 -602 0
604 602 0
-605 -603 0
605 603 0
601 -606 0
604 -606 0
-601 -604 606 0
601 -607 0
605 -607 0
-601 -605 607 0
-608 -606 0
608 606 0
-609 -607 0
609 607 0
608 -610 0
607 -610 0
-608 -607 610 0
610 -611 0
546 -611 0
-610 -546 611 0
-612 -611 0
612 611 0
608 -613 0
612 -613 0
-608 -612 613 0
609 -614 0
612 -614 0
-609 -612 614 0
-615 -613 0
615 613 0
-616 -614 0
616 614 0
616 -617 0
612 -617 0
-616 -612 617 0
615 -618 0
612 -618 0
-615 -612 618 0
-619 -617 0
619 617 0
-620 -618 0
620 618 0
619 -621 0
620 -621 0
-619 -620 621 0
621 -622 0
548 -622 0
-621 -548 622 0
-623 -622 0
623 622 0
619 -624 0
623 -624 0
-619 -623 624 0
623 -625 0
620 -625 0
-623 -620 625 0
-626 -625 0
626 625 0
-627 -624 0
627 624 0
623 -628 0
627 -628 0
-623 -627 628 0
626 -629 0
623 -629 0
-626 -623 629 0
-630 -629 0
630 629 0
-631 -628 0
631 628 0
628 -632 0
630 -632 0
-628 -630 632 0
631 -633 0
630 -633 0
-631 -630 633 0
631 -634 0
629 -634 0
-631 -629 634 0
364 -635 0
634 -635 0
-364 -634 635 0
-636 -633 0
636 633 0
-637 -632 0
637 632 0
374 -638 0
634 -638 0
-374 -634 638 0
378 -639 0
632 -639 0
-378 -632 639 0
633 -640 0
370 -640 0
-633 -370 640 0
634 -641 0
360 -641 0
-634 -360 641 0
632 -642 0
358 -642 0
-632 -358 642 0
368 -643 0
633 -643 0
-368 -633 643 0
372 -644 0
632 -644 0
-372 -632 644 0
376 -645 0
634 -645 0
-376 -634 645 0
366 -646 0
634 -646 0
-366 -634 646 0
633 -647 0
380 -647 0
-633 -380 647 0
-648 -634 0
648 634 0
362 -649 0
634 -649 0
-362 -634 649 0
-650 -643 0
650 643 0
-651 -645 0
651 645 0
-652 -646 0
652 646 0
362 -653 0
648 -653 0
-362 -648 653 0
-654 -642 0
654 642 0
636 -655 0
370 -655 0
-636 -370 655 0
-656 -644 0
656 644 0
376 -657 0
648 -657 0
-376 -648 657 0
637 -658 0
358 -658 0
-637 -358 658 0
368 -659 0
636 -659 0
-368 -636 659 0
364 -660 0
648 -660 0
-364 -648 660 0
360 -661 0
648 -661 0
-360 -648 661 0
380 -662 0
636 -662 0
-380 -636 662 0
372 -663 0
637 -663 0
-372 -637 663 0
366 -664 0
648 -664 0
-366 -648 664 0
-665 -638 0
665 638 0
-666 -649 0
666 649 0
-667 -647 0
667 647 0
-668 -639 0
668 639 0
-669 -640 0
669 640 0
374 -670 0
648 -670 0
-374 -648 670 0
-671 -635 0
671 635 0
-672 -641 0
672 641 0
378 -673 0
637 -673 0
-378 -637 673 0
-674 -655 0
674 655 0
-675 -664 0
675 664 0
-676 -660 0
676 660 0
-677 -653 0
677 653 0
-678 -673 0
678 673 0
-679 -659 0
679 659 0
-680 -661 0
680 661 0
-681 -658 0
681 658 0
-682 -657 0
682 657 0
-683 -662 0
683 662 0
-684 -663 0
684 663 0
-685 -670 0
685 670 0
671 -686 0
685 -686 0
-671 -685 686 0
676 -687 0
665 -687 0
-676 -665 687 0
652 -688 0
680 -688 0
-652 -680 688 0
666 -689 0
682 -689 0
-666 -682 689 0
675 -690 0
672 -690 0
-675 -672 690 0
651 -691 0
677 -691 0
-651 -677 691 0
-692 -687 0
692 687 0
-693 -691 0
693 691 0
-694 -688 0
694 688 0
-695 -690 0
695 690 0
-696 -689 0
696 689 0
-697 -686 0
697 686 0
692 -698 0
637 -698 0
-692 -637 698 0
632 -699 0
693 -699 0
-632 -693 699 0
632 -700 0
696 -700 0
-632 -696 700 0
692 -701 0
632 -701 0
-692 -632 701 0
637 -702 0
693 -702 0
-637 -693 702 0
637 -703 0
696 -703 0
-637 -696 703 0
632 -704 0
697 -704 0
-632 -697 704 0
695 -705 0
637 -705 0
-695 -637 705 0
695 -706 0
632 -706 0
-695 -632 706 0
694 -707 0
637 -707 0
-694 -637 707 0
694 -708 0
632 -708 0
-694 -632 708 0
697 -709 0
637 -709 0
-697 -637 709 0
-710 -698 0
710 698 0
-711 -703 0
711 703 0
-712 -708 0
712 708 0
-713 -699 0
713 699 0
-714 -701 0
714 701 0
-715 -707 0
715 707 0
-716 -709 0
716 709 0
-717 -705 0
717 705 0
-718 -700 0
718 700 0
-719 -704 0
719 704 0
-720 -706 0
720 706 0
-721 -702 0
721 702 0
668 -722 0
710 -722 0
-668 -710 722 0
656 -723 0
715 -723 0
-656 -715 723 0
712 -724 0
684 -724 0
-712 -684 724 0
718 -725 0
681 -725 0
-718 -681 725 0
717 -726 0
720 -726 0
-717 -720 726 0
719 -727 0
716 -727 0
-719 -716 727 0
711 -728 0
654 -728 0
-711 -654 728 0
713 -729 0
721 -729 0
-713 -721 729 0
678 -730 0
714 -730 0
-678 -714 730 0
-731 -730 0
731 730 0
-732 -722 0
732 722 0
-733 -726 0
733 726 0
-734 -724 0
734 724 0
-735 -727 0
735 727 0
-736 -729 0
736 729 0
-737 -725 0
737 725 0
-738 -728 0
738 728 0
-739 -723 0
739 723 0
733 -740 0
633 -740 0
-733 -633 740 0
633 -741 0
735 -741 0
-633 -735 741 0
636 -742 0
736 -742 0
-636 -736 742 0
738 -743 0
633 -743 0
-738 -633 743 0
738 -744 0
636 -744 0
-738 -636 744 0
733 -745 0
636 -745 0
-733 -636 745 0
731 -746 0
633 -746 0
-731 -633 746 0
636 -747 0
735 -747 0
-636 -735 747 0
636 -748 0
737 -748 0
-636 -737 748 0
633 -749 0
739 -749 0
-633 -739 749 0
731 -750 0
636 -750 0
-731 -636 750 0
734 -751 0
633 -751 0
-734 -633 751 0
732 -752 0
633 -752 0
-732 -633 752 0
734 -753 0
636 -753 0
-734 -636 753 0
636 -754 0
739 -754 0
-636 -739 754 0
732 -755 0
636 -755 0
-732 -636 755 0
633 -756 0
737 -756 0
-633 -737 756 0
633 -757 0
736 -757 0
-633 -736 757 0
-758 -755 0
758 755 0
-759 -752 0
759 752 0
-760 -744 0
760 744 0
-761 -743 0
761 743 0
-762 -753 0
762 753 0
-763 -751 0
763 751 0
-764 -745 0
764 745 0
-765 -740 0
765 740 0
-766 -741 0
766 741 0
-767 -757 0
767 757 0
-768 -750 0
768 750 0
-769 -742 0
769 742 0
-770 -756 0
770 756 0
-771 -746 0
771 746 0
-772 -754 0
772 754 0
-773 -748 0
773 748 0
-774 -749 0
774 749 0
-775 -747 0
775 747 0
764 -776 0
763 -776 0
-764 -763 776 0
669 -777 0
758 -777 0
-669 -758 777 0
769 -778 0
770 -778 0
-769 -770 778 0
765 -779 0
762 -779 0
-765 -762 779 0
674 -780 0
759 -780 0
-674 -759 780 0
761 -781 0
683 -781 0
-761 -683 781 0
679 -782 0
774 -782 0
-679 -774 782 0
768 -783 0
766 -783 0
-768 -766 783 0
772 -784 0
650 -784 0
-772 -650 784 0
760 -785 0
667 -785 0
-760 -667 785 0
775 -786 0
771 -786 0
-775 -771 786 0
773 -787 0
767 -787 0
-773 -767 787 0
-788 -784 0
788 784 0
-789 -776 0
789 776 0
-790 -787 0
790 787 0
-791 -782 0
791 782 0
-792 -783 0
792 783 0
-793 -780 0
793 780 0
-794 -786 0
794 786 0
-795 -779 0
795 779 0
-796 -777 0
796 777 0
-797 -785 0
797 785 0
-798 -781 0
798 781 0
-799 -778 0
799 778 0
799 -800 0
787 -800 0
-799 -787 800 0
792 -801 0
786 -801 0
-792 -786 801 0
795 -802 0
782 -802 0
-795 -782 802 0
793 -803 0
786 -803 0
-793 -786 803 0
786 -804 0
794 -804 0
-786 -794 804 0
776 -805 0
789 -805 0
-776 -789 805 0
787 -806 0
790 -806 0
-787 -790 806 0
799 -807 0
781 -807 0
-799 -781 807 0
776 -808 0
791 -808 0
-776 -791 808 0
779 -809 0
789 -809 0
-779 -789 809 0
783 -810 0
792 -810 0
-783 -792 810 0
783 -811 0
794 -811 0
-783 -794 811 0
780 -812 0
794 -812 0
-780 -794 812 0
780 -813 0
792 -813 0
-780 -792 813 0
778 -814 0
799 -814 0
-778 -799 814 0
779 -815 0
791 -815 0
-779 -791 815 0
793 -816 0
783 -816 0
-793 -783 816 0
779 -817 0
795 -817 0
-779 -795 817 0
789 -818 0
782 -818 0
-789 -782 818 0
781 -819 0
790 -819 0
-781 -790 819 0
795 -820 0
776 -820 0
-795 -776 820 0
-821 -805 0
821 805 0
-822 -804 0
822 804 0
-823 -815 0
823 815 0
-824 -816 0
824 816 0
-825 -803 0
825 803 0
-826 -810 0
826 810 0
-827 -820 0
827 820 0
-828 -817 0
828 817 0
-829 -813 0
829 813 0
-830 -809 0
830 809 0
-831 -802 0
831 802 0
-832 -808 0
832 808 0
-833 -818 0
833 818 0
-834 -811 0
834 811 0
-835 -801 0
835 801 0
-836 -812 0
836 812 0
828 -837 0
828 -837 0
-828 -828 837 0
831 -838 0
823 -838 0
-831 -823 838 0
835 -839 0
834 -839 0
-835 -834 839 0
827 -840 0
830 -840 0
-827 -830 840 0
822 -841 0
822 -841 0
-822 -822 841 0
821 -842 0
821 -842 0
-821 -821 842 0
826 -843 0
826 -843 0
-826 -826 843 0
825 -844 0
836 -844 0
-825 -836 844 0
832 -845 0
833 -845 0
-832 -833 845 0
829 -846 0
824 -846 0
-829 -824 846 0
823 -847 0
831 -847 0
-823 -831 847 0
840 -848 0
811 -848 0
-840 -811 848 0
842 -849 0
804 -849 0
-842 -804 849 0
845 -850 0
807 -850 0
-845 -807 850 0
837 -851 0
806 -851 0
-837 -806 851 0
840 -852 0
800 -852 0
-840 -800 852 0
837 -853 0
810 -853 0
-837 -810 853 0
838 -854 0
819 -854 0
-838 -819 854 0
842 -855 0
814 -855 0
-842 -814 855 0
845 -856 0
812 -856 0
-845 -812 856 0
813 -857 0
847 -857 0
-813 -847 857 0
844 -858 0
850 -858 0
-844 -850 858 0
-859 -849 0
859 849 0
-860 -857 0
860 857 0
-861 -853 0
861 853 0
846 -862 0
854 -862 0
-846 -854 862 0
843 -863 0
851 -863 0
-843 -851 863 0
839 -864 0
852 -864 0
-839 -852 864 0
-865 -848 0
865 848 0
841 -866 0
855 -866 0
-841 -855 866 0
-867 -856 0
867 856 0
821 -868 0
859 -868 0
-821 -859 868 0
-869 -863 0
869 863 0
828 -870 0
861 -870 0
-828 -861 870 0
-871 -858 0
871 858 0
833 -872 0
867 -872 0
-833 -867 872 0
-873 -866 0
873 866 0
860 -874 0
831 -874 0
-860 -831 874 0
-875 -862 0
875 862 0
830 -876 0
865 -876 0
-830 -865 876 0
-877 -864 0
877 864 0
874 -878 0
875 -878 0
-874 -875 878 0
876 -879 0
877 -879 0
-876 -877 879 0
872 -880 0
871 -880 0
-872 -871 880 0
868 -881 0
873 -881 0
-868 -873 881 0
870 -882 0
869 -882 0
-870 -869 882 0
-883 -881 0
883 881 0
-884 -878 0
884 878 0
-885 -879 0
885 879 0
-886 -882 0
886 882 0
-887 -880 0
887 880 0
886 -888 0
884 -888 0
-886 -884 888 0
-889 -888 0
889 888 0
889 -890 0
884 -890 0
-889 -884 890 0
-891 -890 0
891 890 0
889 -892 0
891 -892 0
-889 -891 892 0
887 -893 0
892 -893 0
-887 -892 893 0
-894 -892 0
894 892 0
-895 -893 0
895 893 0
895 -896 0
894 -896 0
-895 -894 896 0
895 -897 0
896 -897 0
-895 -896 897 0
885 -898 0
897 -898 0
-885 -897 898 0
-899 -898 0
899 898 0
893 -900 0
899 -900 0
-893 -899 900 0
899 -901 0
896 -901 0
-899 -896 901 0
-902 -900 0
902 900 0
-903 -901 0
903 901 0
899 -904 0
902 -904 0
-899 -902 904 0
-905 -904 0
905 904 0
905 -906 0
903 -906 0
-905 -903 906 0
906 -907 0
883 -907 0
-906 -883 907 0
-908 -907 0
908 907 0
905 -909 0
908 -909 0
-905 -908 909 0
901 -910 0
908 -910 0
-901 -908 910 0
-911 -910 0
911 910 0
-912 -909 0
912 909 0
912 -913 0
908 -913 0
-912 -908 913 0
-914 -913 0
914 913 0
910 -915 0
913 -915 0
-910 -913 915 0
915 -916 0
791 -916 0
-915 -791 916 0
915 -917 0
790 -917 0
-915 -790 917 0
911 -918 0
914 -918 0
-911 -914 918 0
795 -919 0
915 -919 0
-795 -915 919 0
-920 -915 0
920 915 0
792 -921 0
915 -921 0
-792 -915 921 0
793 -922 0
915 -922 0
-793 -915 922 0
798 -923 0
915 -923 0
-798 -915 923 0
792 -924 0
920 -924 0
-792 -920 924 0
918 -925 0
794 -925 0
-918 -794 925 0
790 -926 0
920 -926 0
-790 -920 926 0
-927 -919 0
927 919 0
-928 -923 0
928 923 0
918 -929 0
789 -929 0
-918 -789 929 0
793 -930 0
920 -930 0
-793 -920 930 0
791 -931 0
920 -931 0
-791 -920 931 0
-932 -916 0
932 916 0
798 -933 0
920 -933 0
-798 -920 933 0
-934 -918 0
934 918 0
799 -935 0
918 -935 0
-799 -918 935 0
-936 -922 0
936 922 0
795 -937 0
920 -937 0
-795 -920 937 0
-938 -921 0
938 921 0
-939 -917 0
939 917 0
-940 -925 0
940 925 0
799 -941 0
934 -941 0
-799 -934 941 0
-942 -935 0
942 935 0
-943 -930 0
943 930 0
-944 -924 0
944 924 0
934 -945 0
794 -945 0
-934 -794 945 0
-946 -929 0
946 929 0
-947 -937 0
947 937 0
-948 -933 0
948 933 0
-949 -931 0
949 931 0
-950 -926 0
950 926 0
934 -951 0
789 -951 0
-934 -789 951 0
936 -952 0
944 -952 0
-936 -944 952 0
939 -953 0
948 -953 0
-939 -948 953 0
943 -954 0
938 -954 0
-943 -938 954 0
-955 -951 0
955 951 0
-956 -941 0
956 941 0
947 -957 0
932 -957 0
-947 -932 957 0
928 -958 0
950 -958 0
-928 -950 958 0
927 -959 0
949 -959 0
-927 -949 959 0
-960 -945 0
960 945 0
-961 -958 0
961 958 0
-962 -953 0
962 953 0
-963 -959 0
963 959 0
-964 -952 0
964 952 0
-965 -957 0
965 957 0
-966 -954 0
966 954 0
966 -967 0
934 -967 0
-966 -934 967 0
965 -968 0
918 -968 0
-965 -918 968 0
918 -969 0
961 -969 0
-918 -961 969 0
918 -970 0
964 -970 0
-918 -964 970 0
966 -971 0
918 -971 0
-966 -918 971 0
934 -972 0
964 -972 0
-934 -964 972 0
934 -973 0
962 -973 0
-934 -962 973 0
963 -974 0
934 -974 0
-963 -934 974 0
918 -975 0
962 -975 0
-918 -962 975 0
965 -976 0
934 -976 0
-965 -934 976 0
934 -977 0
961 -977 0
-934 -961 977 0
963 -978 0
918 -978 0
-963 -918 978 0
-979 -975 0
979 975 0
-980 -973 0
980 973 0
-981 -971 0
981 971 0
-982 -974 0
982 974 0
-983 -978 0
983 978 0
-984 -972 0
984 972 0
-985 -968 0
985 968 0
-986 -977 0
986 977 0
-987 -967 0
987 967 0
-988 -970 0
988 970 0
-989 -969 0
989 969 0
-990 -976 0
990 976 0
940 -991 0
987 -991 0
-940 -987 991 0
955 -992 0
983 -992 0
-955 -983 992 0
984 -993 0
988 -993 0
-984 -988 993 0
986 -994 0
989 -994 0
-986 -989 994 0
980 -995 0
942 -995 0
-980 -942 995 0
985 -996 0
990 -996 0
-985 -990 996 0
979 -997 0
956 -997 0
-979 -956 997 0
960 -998 0
981 -998 0
-960 -981 998 0
982 -999 0
946 -999 0
-982 -946 999 0
-1000 -996 0
1000 996 0
-1001 -997 0
1001 997 0
-1002 -993 0
1002 993 0
-1003 -999 0
1003 999 0
-1004 -995 0
1004 995 0
-1005 -998 0
1005 998 0
-1006 -991 0
1006 991 0
-1007 -992 0
1007 992 0
-1008 -994 0
1008 994 0
993 -1009 0
1002 -1009 0
-993 -1002 1009 0
994 -1010 0
1008 -1010 0
-994 -1008 1010 0
998 -1011 0
1002 -1011 0
-998 -1002 1011 0
996 -1012 0
1007 -1012 0
-996 -1007 1012 0
996 -1013 0
1000 -1013 0
-996 -1000 1013 0
1000 -1014 0
992 -1014 0
-1000 -992 1014 0
1005 -1015 0
993 -1015 0
-1005 -993 1015 0
997 -1016 0
1008 -1016 0
-997 -1008 1016 0
-1017 -1009 0
1017 1009 0
-1018 -1011 0
1018 1011 0
-1019 -1015 0
1019 1015 0
-1020 -1013 0
1020 1013 0
-1021 -1012 0
1021 1012 0
-1022 -1014 0
1022 1014 0
1019 -1023 0
1018 -1023 0
-1019 -1018 1023 0
1020 -1024 0
1020 -1024 0
-1020 -1020 1024 0
1017 -1025 0
1017 -1025 0
-1017 -1017 1025 0
1021 -1026 0
1022 -1026 0
-1021 -1022 1026 0
1026 -1027 0
1016 -1027 0
-1026 -1016 1027 0
1024 -1028 0
1010 -1028 0
-1024 -1010 1028 0
1009 -1029 0
1024 -1029 0
-1009 -1024 1029 0
1026 -1030 0
1011 -1030 0
-1026 -1011 1030 0
-1031 -1030 0
1031 1030 0
1023 -1032 0
1027 -1032 0
-1023 -1027 1032 0
1025 -1033 0
1028 -1033 0
-1025 -1028 1033 0
-1034 -1029 0
1034 1029 0
-1035 -1032 0
1035 1032 0
1034 -1036 0
1020 -1036 0
-1034 -1020 1036 0
-1037 -1033 0
1037 1033 0
1022 -1038 0
1031 -1038 0
-1022 -1031 1038 0
1038 -1039 0
1035 -1039 0
-1038 -1035 1039 0
1036 -1040 0
1037 -1040 0
-1036 -1037 1040 0
-1041 -1039 0
1041 1039 0
-1042 -1040 0
1042 1040 0
1041 -1043 0
1042 -1043 0
-1041 -1042 1043 0
-1044 -1043 0
1044 1043 0
1044 -1045 0
1041 -1045 0
-1044 -1041 1045 0
-1046 -1045 0
1046 1045 0
1044 -1047 0
1046 -1047 0
-1044 -1046 1047 0
1005 -1048 0
1047 -1048 0
-1005 -1047 1048 0
1047 -1049 0
1002 -1049 0
-1047 -1002 1049 0
1047 -1050 0
1007 -1050 0
-1047 -1007 1050 0
1047 -1051 0
1008 -1051 0
-1047 -1008 1051 0
1000 -1052 0
1047 -1052 0
-1000 -1047 1052 0
-1053 -1047 0
1053 1047 0
1001 -1054 0
1047 -1054 0
-1001 -1047 1054 0
-1055 -1051 0
1055 1051 0
-1056 -1052 0
1056 1052 0
-1057 -1049 0
1057 1049 0
1053 -1058 0
1008 -1058 0
-1053 -1008 1058 0
1053 -1059 0
1007 -1059 0
-1053 -1007 1059 0
-1060 -1048 0
1060 1048 0
1000 -1061 0
1053 -1061 0
-1000 -1053 1061 0
-1062 -1050 0
1062 1050 0
1001 -1063 0
1053 -1063 0
-1001 -1053 1063 0
1005 -1064 0
1053 -1064 0
-1005 -1053 1064 0
-1065 -1054 0
1065 1054 0
1053 -1066 0
1002 -1066 0
-1053 -1002 1066 0
-1067 -1063 0
1067 1063 0
-1068 -1058 0
1068 1058 0
-1069 -1061 0
1069 1061 0
-1070 -1059 0
1070 1059 0
-1071 -1064 0
1071 1064 0
-1072 -1066 0
1072 1066 0
1056 -1073 0
1070 -1073 0
-1056 -1070 1073 0
1067 -1074 0
1055 -1074 0
-1067 -1055 1074 0
1072 -1075 0
1060 -1075 0
-1072 -1060 1075 0
1057 -1076 0
1071 -1076 0
-1057 -1071 1076 0
1062 -1077 0
1069 -1077 0
-1062 -1069 1077 0
1065 -1078 0
1068 -1078 0
-1065 -1068 1078 0
-1079 -1076 0
1079 1076 0
-1080 -1073 0
1080 1073 0
-1081 -1077 0
1081 1077 0
-1082 -1075 0
1082 1075 0
-1083 -1078 0
1083 1078 0
-1084 -1074 0
1084 1074 0
-26 376 0
26 -376 0
-8 364 0
8 -364 0
-4 360 0
4 -360 0
-6 362 0
6 -362 0
-18 374 0
18 -374 0
-10 366 0
10 -366 0
-2 358 0
2 -358 0
-20 378 0
20 -378 0
-16 372 0
16 -372 0
-22 380 0
22 -380 0
-14 370 0
14 -370 0
-12 368 0
12 -368 0
-244 -797 -1085 0
244 797 -1085 0
244 -797 1085 0
-244 797 1085 0
-243 -796 -1086 0
243 796 -1086 0
243 -796 1086 0
-243 796 1086 0
-242 -788 -1087 0
242 788 -1087 0
242 -788 1087 0
-242 788 1087 0
-303 -1004 -1088 0
303 1004 -1088 0
303 -1004 1088 0
-303 1004 1088 0
-297 -1006 -1089 0
297 1006 -1089 0
297 -1006 1089 0
-297 1006 1089 0
-296 -1003 -1090 0
296 1003 -1090 0
296 -1003 1090 0
-296 1003 1090 0
-352 -1084 -1091 0
352 1084 -1091 0
352 -1084 1091 0
-352 1084 1091 0
-354 -1079 -1092 0
354 1079 -1092 0
354 -1079 1092 0
-354 1079 1092 0
-351 -1080 -1093 0
351 1080 -1093 0
351 -1080 1093 0
-351 1080 1093 0
-356 -1083 -1094 0
356 1083 -1094 0
356 -1083 1094 0
-356 1083 1094 0
-353 -1082 -1095 0
353 1082 -1095 0
353 -1082 1095 0
-353 1082 1095 0
-355 -1081 -1096 0
355 1081 -1096 0
355 -1081 1096 0
-355 1081 1096 0
1085 1086 1087 1088 1089 1090 1091 1092 1093 1094 1095 1096 0
